(set-info :source  loris-7.ddns.comp.nus.edu.sg/~project/hip/) 
;Variables declarations
(declare-fun q_2136 () Int)
(declare-fun n () Int)
(declare-fun m1 () Int)
(declare-fun n_2139 () Int)
(declare-fun flted_11_2134 () Int)
(declare-fun flted_23_2153 () Int)
(declare-fun m1_2159 () Int)
(declare-fun n_2158 () Int)
(declare-fun y_2147 () Int)
(declare-fun y () Int)
(declare-fun Anon_2172 () Int)
(declare-fun Anon_2173 () Int)
(declare-fun flted_101_2171 () Int)
(declare-fun y_primed () Int)
;Relations declarations
;Axioms assertions
;Antecedent
(assert (<= 0 flted_11_2134))
(assert (<= 0 flted_23_2153))
(assert (<= 0 n_2139))
(assert (<= 0 m1))
(assert (or (and (< q_2136 1) (= n_2158 0)) (and (<= 1 n_2158) (> q_2136 0))))
(assert (= (+ flted_11_2134 1) n))
(assert (= n_2139 m1))
(assert (= flted_23_2153 (+ 1 n_2139)))
(assert (= n_2158 flted_11_2134))
(assert (= m1_2159 flted_23_2153))
(assert (<= 0 n_2158))
(assert (<= 0 m1_2159))
(assert (= flted_101_2171 (+ m1_2159 n_2158)))
(assert (= y_2147 y))
(assert (or (and (and (< y_primed 1) (= flted_101_2171 0)) (<= Anon_2172 Anon_2173)) (and (and (<= Anon_2172 Anon_2173) (<= 1 flted_101_2171)) (> y_primed 0))))
;Negation of Consequence
(assert (not (or (= flted_101_2171 0) (< y_primed 1))))
(check-sat)